NAME: n200q10F.tsp, 200 nodes, semilla 555
COMMENT: Problema aleatorio de norma euclidea
DIMENSION: 200
CAPACITY: 10
EDGE_WEIGHT_TYPE: EUC_2D
NODE_COORD_SECTION
1   0.0000   0.0000
2 -190.0000 352.0000
3 -499.0000 -350.0000
4 -55.0000 313.0000
5 -219.0000 340.0000
6 -193.0000 -388.0000
7 279.0000 -430.0000
8 -47.0000 -281.0000
9 270.0000 -80.0000
10 169.0000 -240.0000
11 -291.0000 -261.0000
12 328.0000 -142.0000
13 117.0000 313.0000
14 -169.0000 -87.0000
15 474.0000 378.0000
16 -238.0000 -472.0000
17  40.0000  71.0000
18 342.0000 -415.0000
19 -414.0000 202.0000
20  13.0000 173.0000
21 -365.0000 175.0000
22 -393.0000 -492.0000
23 360.0000 417.0000
24 -229.0000 -41.0000
25 -282.0000 -25.0000
26 -433.0000 -437.0000
27 416.0000  56.0000
28 244.0000 -447.0000
29 356.0000 157.0000
30 -403.0000 -275.0000
31 223.0000 495.0000
32 -183.0000 -300.0000
33 -58.0000 249.0000
34 -313.0000 177.0000
35 -90.0000  47.0000
36  66.0000 417.0000
37 -426.0000 -369.0000
38 261.0000 -83.0000
39 -452.0000 -26.0000
40 232.0000  72.0000
41 -372.0000 -225.0000
42 244.0000 370.0000
43 -320.0000 -329.0000
44 -196.0000 -68.0000
45 -203.0000 -180.0000
46 380.0000 -51.0000
47 -270.0000 -296.0000
48 -354.0000 -35.0000
49 383.0000 -208.0000
50 419.0000 256.0000
51 491.0000 -422.0000
52 -225.0000 348.0000
53 230.0000 -258.0000
54 -72.0000 -97.0000
55  25.0000  44.0000
56 376.0000 163.0000
57 -254.0000 -306.0000
58 441.0000 -93.0000
59 -260.0000 -409.0000
60 -464.0000 -141.0000
61 487.0000 301.0000
62 389.0000 -366.0000
63 -212.0000 -197.0000
64 -238.0000 -93.0000
65 139.0000 -342.0000
66 -326.0000 -315.0000
67  96.0000 -118.0000
68  61.0000 -72.0000
69 300.0000  83.0000
70 -135.0000 -199.0000
71 424.0000 424.0000
72 418.0000 -240.0000
73 -121.0000  46.0000
74 189.0000 -361.0000
75 -180.0000 217.0000
76 -319.0000 -147.0000
77 -462.0000 -16.0000
78 -376.0000 100.0000
79 -365.0000 -478.0000
80 -219.0000 464.0000
81 -413.0000 -110.0000
82 -154.0000  66.0000
83 173.0000 -97.0000
84 -357.0000 -301.0000
85 -154.0000 -458.0000
86  47.0000 -315.0000
87 361.0000 308.0000
88 447.0000 -26.0000
89 203.0000 294.0000
90 241.0000 302.0000
91 128.0000 108.0000
92 279.0000  19.0000
93 429.0000  30.0000
94 340.0000 403.0000
95 496.0000 -483.0000
96 494.0000 -77.0000
97 165.0000 301.0000
98 116.0000 -35.0000
99 154.0000 353.0000
100 -278.0000 327.0000
101 229.0000 -448.0000
102 243.0000 -175.0000
103 -99.0000 279.0000
104 -346.0000  38.0000
105 190.0000 -321.0000
106 -324.0000 -400.0000
107 321.0000 288.0000
108 -383.0000 -418.0000
109 -62.0000 142.0000
110  49.0000 103.0000
111 -188.0000 139.0000
112 333.0000 -309.0000
113 -318.0000 -211.0000
114 -306.0000 223.0000
115 152.0000 337.0000
116 -398.0000 362.0000
117 410.0000  88.0000
118  12.0000 302.0000
119  90.0000 -311.0000
120 480.0000 305.0000
121 448.0000 448.0000
122  63.0000 -260.0000
123 -267.0000 -59.0000
124 -448.0000 -349.0000
125 208.0000 336.0000
126 -407.0000 263.0000
127 -67.0000 132.0000
128 140.0000  65.0000
129 475.0000  25.0000
130 -492.0000 416.0000
131  29.0000 350.0000
132  -6.0000 -292.0000
133 -53.0000 -26.0000
134 171.0000 396.0000
135 -110.0000 -21.0000
136 165.0000 245.0000
137 113.0000 465.0000
138 -238.0000 -101.0000
139 221.0000 -52.0000
140 -117.0000 -75.0000
141 448.0000 -60.0000
142 297.0000 380.0000
143 -267.0000 472.0000
144 392.0000 461.0000
145 -217.0000  -7.0000
146 -418.0000 -144.0000
147 330.0000 -112.0000
148 250.0000 391.0000
149 234.0000  43.0000
150 328.0000 -110.0000
151  11.0000 -412.0000
152 -340.0000 -85.0000
153 457.0000 138.0000
154 156.0000 -474.0000
155 -447.0000 116.0000
156 283.0000 -477.0000
157 -304.0000 -173.0000
158 -20.0000 -242.0000
159  -6.0000 -473.0000
160 212.0000 -121.0000
161 373.0000 -475.0000
162 427.0000 358.0000
163 -185.0000  72.0000
164 -333.0000 321.0000
165 -274.0000 438.0000
166 -190.0000 -462.0000
167 383.0000 348.0000
168  21.0000 -438.0000
169 280.0000 -116.0000
170 -346.0000 -197.0000
171 -286.0000 413.0000
172 368.0000 -156.0000
173 129.0000 -52.0000
174 -449.0000 -99.0000
175 254.0000 -174.0000
176 -106.0000 -26.0000
177 151.0000 462.0000
178 -189.0000 -292.0000
179 229.0000 485.0000
180 -123.0000 228.0000
181 478.0000 151.0000
182 273.0000 130.0000
183 -156.0000 -212.0000
184 249.0000 484.0000
185  55.0000 -266.0000
186 -81.0000 -118.0000
187 438.0000 272.0000
188 -143.0000  17.0000
189 451.0000 264.0000
190 413.0000 -415.0000
191 -272.0000 -103.0000
192 -394.0000 220.0000
193 -452.0000 -44.0000
194 -169.0000 -40.0000
195  -6.0000 103.0000
196 -312.0000 262.0000
197 380.0000 415.0000
198 -369.0000 427.0000
199 -244.0000 -405.0000
200 216.0000 -137.0000
DISPLAY_DATA_SECTION:
 1  250  250
 2  155  426
 3    0   75
 4  222  406
 5  140  420
 6  153   56
 7  389   35
 8  226  109
 9  385  210
10  334  130
11  104  119
12  414  179
13  308  406
14  165  206
15  487  439
16  131   14
17  270  285
18  421   42
19   43  351
20  256  336
21   67  337
22   53    4
23  430  458
24  135  229
25  109  237
26   33   31
27  458  278
28  372   26
29  428  328
30   48  112
31  361  497
32  158  100
33  221  374
34   93  338
35  205  273
36  283  458
37   37   65
38  380  208
39   24  237
40  366  286
41   64  137
42  372  435
43   90   85
44  152  216
45  148  160
46  440  224
47  115  102
48   73  232
49  441  146
50  459  378
51  495   39
52  137  424
53  365  121
54  214  201
55  262  272
56  438  331
57  123   97
58  470  203
59  120   45
60   18  179
61  493  400
62  444   67
63  144  151
64  131  203
65  319   79
66   87   92
67  298  191
68  280  214
69  400  291
70  182  150
71  462  462
72  459  130
73  189  273
74  344   69
75  160  358
76   90  176
77   19  242
78   62  300
79   67   11
80  140  482
81   43  195
82  173  283
83  336  201
84   71   99
85  173   21
86  273   92
87  430  404
88  473  237
89  351  397
90  370  401
91  314  304
92  389  259
93  464  265
94  420  451
95  498    8
96  497  211
97  332  400
98  308  232
99  327  426
100  111  413
101  364   26
102  371  162
103  200  389
104   77  269
105  345   89
106   88   50
107  410  394
108   58   41
109  219  321
110  274  301
111  156  319
112  416   95
113   91  144
114   97  361
115  326  418
116   51  431
117  455  294
118  256  401
119  295   94
120  490  402
121  474  474
122  281  120
123  116  220
124   26   75
125  354  418
126   46  381
127  216  316
128  320  282
129  487  262
130    4  458
131  264  425
132  247  104
133  223  237
134  335  448
135  195  239
136  332  372
137  306  482
138  131  199
139  360  224
140  191  212
141  474  220
142  398  440
143  116  486
144  446  480
145  141  246
146   41  178
147  415  194
148  375  445
149  367  271
150  414  195
151  255   44
152   80  207
153  478  319
154  328   13
155   26  308
156  391   11
157   98  163
158  240  129
159  247   13
160  356  189
161  436   12
162  463  429
163  157  286
164   83  410
165  113  469
166  155   19
167  441  424
168  260   31
169  390  192
170   77  151
171  107  456
172  434  172
173  314  224
174   25  200
175  377  163
176  197  237
177  325  481
178  155  104
179  364  492
180  188  364
181  489  325
182  386  315
183  172  144
184  374  492
185  277  117
186  209  191
187  469  386
188  178  258
189  475  382
190  456   42
191  114  198
192   53  360
193   24  228
194  165  230
195  247  301
196   94  381
197  440  457
198   65  463
199  128   47
200  358  181
DEMAND_SECTION
1 4
2 10
3 -1
4 9
5 5
6 7
7 -3
8 2
9 0
10 7
11 2
12 8
13 -9
14 6
15 6
16 -7
17 9
18 -6
19 -2
20 -8
21 8
22 3
23 4
24 5
25 0
26 1
27 -8
28 -5
29 -7
30 5
31 -4
32 7
33 -4
34 -8
35 -4
36 -9
37 7
38 -9
39 10
40 10
41 10
42 4
43 9
44 2
45 8
46 3
47 2
48 -8
49 6
50 5
51 -5
52 0
53 -9
54 2
55 -4
56 4
57 2
58 3
59 0
60 6
61 -9
62 -2
63 -8
64 -7
65 -7
66 -8
67 2
68 5
69 8
70 5
71 -7
72 1
73 3
74 3
75 -2
76 -8
77 -6
78 7
79 -3
80 -10
81 0
82 -3
83 -5
84 7
85 2
86 6
87 0
88 4
89 2
90 -7
91 -5
92 -9
93 5
94 -6
95 4
96 4
97 -2
98 -6
99 -3
100 -2
101 7
102 -8
103 4
104 -4
105 5
106 2
107 1
108 1
109 -2
110 -6
111 6
112 -2
113 8
114 4
115 -3
116 -6
117 -2
118 0
119 -2
120 0
121 -3
122 0
123 7
124 7
125 -3
126 1
127 2
128 6
129 0
130 3
131 5
132 0
133 5
134 2
135 2
136 -4
137 0
138 9
139 7
140 -8
141 -10
142 -6
143 -8
144 7
145 8
146 8
147 -8
148 -7
149 -2
150 0
151 -10
152 1
153 -1
154 1
155 8
156 6
157 0
158 4
159 -5
160 9
161 1
162 -7
163 -6
164 -4
165 -10
166 2
167 2
168 0
169 -7
170 -5
171 8
172 -2
173 -4
174 -4
175 -4
176 2
177 0
178 2
179 4
180 2
181 -4
182 -3
183 -5
184 8
185 -8
186 -5
187 -1
188 8
189 -3
190 -4
191 -2
192 -1
193 8
194 7
195 -1
196 -8
197 -8
198 0
199 -9
200 1
EOF